p cnf 12 32
12 -11 8 0
-12 10 7 0
12 -8 2 0
-12 -5 -4 0
12 -3 -2 0
12 -3 1 0
12 2 -1 0
-11 10 8 0
-11 10 6 0
11 8 -7 0
11 8 1 0
11 7 5 0
-11 5 3 0
-11 4 3 0
-11 -4 -2 0
11 4 -1 0
10 -9 4 0
-10 5 3 0
10 5 -2 0
9 8 3 0
9 8 1 0
9 7 1 0
-9 -6 3 0
8 4 1 0
-8 3 2 0
8 2 -1 0
7 -5 -1 0
-6 5 -2 0
-6 -2 1 0
6 -2 1 0
5 4 -1 0
4 3 2 0
